50
1 0 48
2 0 110
2 1 31
3 0 150
3 1 19
3 2 145
4 0 86
4 1 70
4 2 12
4 3 106
5 0 151
5 1 145
5 2 117
5 3 8
5 4 68
6 0 92
6 1 62
6 2 95
6 3 69
6 4 85
6 5 26
7 0 124
7 2 70
7 3 157
7 5 143
7 6 49
8 0 41
8 1 132
8 2 1
8 3 79
8 4 107
8 5 29
8 6 136
9 0 30
9 1 108
9 2 28
9 3 137
9 4 10
9 5 105
9 6 5
9 7 80
9 8 50
10 0 95
10 1 78
10 2 118
10 3 134
10 4 116
10 5 38
10 6 119
10 7 113
10 8 145
10 9 4
11 1 46
11 2 21
11 3 132
11 4 5
11 5 97
11 6 103
11 7 139
11 8 9
11 9 140
11 10 55
12 0 133
12 1 62
12 2 120
12 3 41
12 4 43
12 5 125
12 6 111
12 7 113
12 9 44
12 10 121
12 11 143
13 0 12
13 1 73
13 2 114
13 3 20
13 4 105
13 5 18
13 6 94
13 7 34
13 8 51
13 9 143
13 10 26
13 11 153
13 12 123
14 0 20
14 1 79
14 2 139
14 3 153
14 5 14
14 6 129
14 7 102
14 8 92
14 9 13
14 10 71
14 11 58
14 12 68
14 13 84
15 0 144
15 1 46
15 2 38
15 3 124
15 4 80
15 5 32
15 6 101
15 7 110
15 9 104
15 10 49
15 11 94
15 12 76
15 13 65
15 14 104
16 0 53
16 1 144
16 2 128
16 3 27
16 5 123
16 6 9
16 7 6
16 8 56
16 9 97
16 10 88
16 11 74
16 12 141
16 13 64
16 14 22
16 15 130
17 0 90
17 1 149
17 2 105
17 3 18
17 4 70
17 5 75
17 6 49
17 7 119
17 8 24
17 9 48
17 10 75
17 11 36
17 12 7
17 13 92
17 14 6
17 15 70
17 16 103
18 0 106
18 1 137
18 2 35
18 3 114
18 4 80
18 5 155
18 6 62
18 7 39
18 9 140
18 10 48
18 11 90
18 12 99
18 13 91
18 14 33
18 15 31
18 17 29
19 0 29
19 1 144
19 2 26
19 3 16
19 4 131
19 5 114
19 6 79
19 7 116
19 8 67
19 9 159
19 10 66
19 11 72
19 12 55
19 13 64
19 14 26
19 15 114
19 16 143
19 17 127
19 18 68
20 0 94
20 1 6
20 2 85
20 3 19
20 4 105
20 5 29
20 6 40
20 7 151
20 8 38
20 9 36
20 10 88
20 11 90
20 12 19
20 13 65
20 14 90
20 15 93
20 16 25
20 17 120
20 18 66
20 19 116
21 0 106
21 1 18
21 2 142
21 3 128
21 4 54
21 5 14
21 6 156
21 7 67
21 9 84
21 10 124
21 11 36
21 12 28
21 13 113
21 15 91
21 16 84
21 17 24
21 18 24
21 19 69
21 20 67
22 0 99
22 1 77
22 2 32
22 3 158
22 4 62
22 5 101
22 6 61
22 7 149
22 8 134
22 9 58
22 10 3
22 11 130
22 12 111
22 13 4
22 14 42
22 15 134
22 16 65
22 17 16
22 18 58
22 20 106
23 0 54
23 1 1
23 3 13
23 4 47
23 5 82
23 6 15
23 7 73
23 8 34
23 9 24
23 10 16
23 11 26
23 12 59
23 13 115
23 14 132
23 15 82
23 16 93
23 17 48
23 18 7
23 19 5
23 20 158
23 21 90
23 22 6
24 0 51
24 1 11
24 2 76
24 3 148
24 4 31
24 5 138
24 6 99
24 7 144
24 8 8
24 9 159
24 10 102
24 11 95
24 12 96
24 13 98
24 14 95
24 15 60
24 16 60
24 17 69
24 18 53
24 19 43
24 20 124
24 21 57
24 22 25
24 23 113
25 0 76
25 1 71
25 3 40
25 4 85
25 5 56
25 6 74
25 9 122
25 11 66
25 12 70
25 13 87
25 14 23
25 15 7
25 16 74
25 17 129
25 18 110
25 19 147
25 20 148
25 21 96
25 23 110
25 24 45
26 0 106
26 1 32
26 2 136
26 3 70
26 4 156
26 6 29
26 7 41
26 8 105
26 9 10
26 10 5
26 11 59
26 12 154
26 13 109
26 14 153
26 15 16
26 16 83
26 17 145
26 18 84
26 19 120
26 21 112
26 22 61
26 23 18
26 24 106
26 25 98
27 0 118
27 1 159
27 2 24
27 3 38
27 5 125
27 7 100
27 8 92
27 9 74
27 10 117
27 11 52
27 12 140
27 14 55
27 16 39
27 17 49
27 18 45
27 21 62
27 22 109
27 23 126
27 24 51
27 25 75
27 26 62
28 0 106
28 1 86
28 2 143
28 3 133
28 5 136
28 6 113
28 7 27
28 9 96
28 10 69
28 12 31
28 13 88
28 15 77
28 16 89
28 17 120
28 18 144
28 19 156
28 20 10
28 21 126
28 22 19
28 23 132
28 24 91
28 25 138
28 26 148
28 27 7
29 1 106
29 2 58
29 4 130
29 5 28
29 6 110
29 7 57
29 8 34
29 9 118
29 10 49
29 12 65
29 13 120
29 14 143
29 15 29
29 16 136
29 17 45
29 18 75
29 19 117
29 20 10
29 21 99
29 23 53
29 24 30
29 26 49
29 28 3
30 0 60
30 1 129
30 2 23
30 3 34
30 5 76
30 6 50
30 7 99
30 8 44
30 9 85
30 10 76
30 11 154
30 12 5
30 13 141
30 15 135
30 16 98
30 17 152
30 18 39
30 19 149
30 20 121
30 21 153
30 22 25
30 23 78
30 24 69
30 25 72
30 27 152
30 28 117
30 29 156
31 0 40
31 1 79
31 2 57
31 3 38
31 4 67
31 6 124
31 7 88
31 8 19
31 9 1
31 10 11
31 12 117
31 14 93
31 15 126
31 16 18
31 17 27
31 18 127
31 19 35
31 20 155
31 22 5
31 23 76
31 24 24
31 25 79
31 26 27
31 27 7
31 29 97
31 30 101
32 1 135
32 2 112
32 3 106
32 5 35
32 6 103
32 7 95
32 8 17
32 9 131
32 10 145
32 12 111
32 13 11
32 14 44
32 15 15
32 16 54
32 17 83
32 18 117
32 19 128
32 20 67
32 21 107
32 22 62
32 23 121
32 24 152
32 25 4
32 26 108
32 27 50
32 29 158
32 30 3
32 31 5
33 0 142
33 1 23
33 2 4
33 4 138
33 5 146
33 6 89
33 7 149
33 8 27
33 10 156
33 11 60
33 12 45
33 13 118
33 15 15
33 16 138
33 17 155
33 18 2
33 19 55
33 20 54
33 21 35
33 22 10
33 23 130
33 24 101
33 25 64
33 26 59
33 28 84
33 29 131
33 30 45
33 31 1
33 32 65
34 0 116
34 1 132
34 2 131
34 3 96
34 4 60
34 5 83
34 6 29
34 7 49
34 8 74
34 9 1
34 10 134
34 11 69
34 12 100
34 13 42
34 14 61
34 15 16
34 16 16
34 17 128
34 18 101
34 19 55
34 20 104
34 21 2
34 22 149
34 23 107
34 24 141
34 25 153
34 26 154
34 27 73
34 29 91
34 30 95
34 31 146
34 32 45
34 33 43
35 0 102
35 2 102
35 3 90
35 4 62
35 5 127
35 6 96
35 7 159
35 8 60
35 9 77
35 10 104
35 11 44
35 12 67
35 13 107
35 14 110
35 15 157
35 16 95
35 17 69
35 18 111
35 20 15
35 21 26
35 23 137
35 24 84
35 25 155
35 26 1
35 27 22
35 28 55
35 29 78
35 30 128
35 31 90
35 32 57
35 33 76
35 34 144
36 0 112
36 1 103
36 2 27
36 3 3
36 4 153
36 6 70
36 7 53
36 8 12
36 9 81
36 10 64
36 11 106
36 12 159
36 13 126
36 15 34
36 16 151
36 17 13
36 18 11
36 20 158
36 21 38
36 22 88
36 23 80
36 24 3
36 25 140
36 26 94
36 27 150
36 28 100
36 29 47
36 30 132
36 32 58
36 34 36
37 0 7
37 1 1
37 2 142
37 4 147
37 5 94
37 6 70
37 8 99
37 9 131
37 10 66
37 11 112
37 13 105
37 14 1
37 15 48
37 16 40
37 17 156
37 18 48
37 19 118
37 20 55
37 21 56
37 22 48
37 24 80
37 25 33
37 26 32
37 27 50
37 28 6
37 30 41
37 31 60
37 32 93
37 33 36
37 34 139
37 35 32
37 36 155
38 0 103
38 1 30
38 2 67
38 3 4
38 4 44
38 5 97
38 6 139
38 7 23
38 8 93
38 9 113
38 10 79
38 11 62
38 13 47
38 14 54
38 15 69
38 17 139
38 18 53
38 19 78
38 20 30
38 22 25
38 23 110
38 24 117
38 25 77
38 26 121
38 27 82
38 29 154
38 31 70
38 32 47
38 33 160
38 34 86
38 35 129
38 36 144
38 37 70
39 0 117
39 1 47
39 2 140
39 3 62
39 4 69
39 5 30
39 6 44
39 7 123
39 8 3
39 9 28
39 10 92
39 11 100
39 12 52
39 13 2
39 14 109
39 15 67
39 16 125
39 17 49
39 18 55
39 19 106
39 20 147
39 21 112
39 22 64
39 23 104
39 24 19
39 25 114
39 26 119
39 27 79
39 28 34
39 29 37
39 30 142
39 31 103
39 32 73
39 33 49
39 34 92
39 35 101
39 36 123
39 37 112
39 38 122
40 0 119
40 1 79
40 2 83
40 3 143
40 4 123
40 5 147
40 6 104
40 7 69
40 8 27
40 9 57
40 12 140
40 13 23
40 14 84
40 16 101
40 17 48
40 18 17
40 19 131
40 20 52
40 21 107
40 22 31
40 23 42
40 24 81
40 25 9
40 26 96
40 28 137
40 29 47
40 31 55
40 32 23
40 33 94
40 34 144
40 36 137
40 37 72
40 38 89
40 39 128
41 0 15
41 1 104
41 2 90
41 3 11
41 4 23
41 5 75
41 6 140
41 7 86
41 8 148
41 9 35
41 10 17
41 12 60
41 14 106
41 15 38
41 16 108
41 17 105
41 18 67
41 19 124
41 20 150
41 21 122
41 22 30
41 23 12
41 24 88
41 25 121
41 26 153
41 27 82
41 28 109
41 29 84
41 30 96
41 31 29
41 32 49
41 33 153
41 34 100
41 35 20
41 36 123
41 37 67
41 38 1
41 39 78
41 40 109
42 0 137
42 1 52
42 2 147
42 3 149
42 4 130
42 5 105
42 6 33
42 7 140
42 8 91
42 9 149
42 10 154
42 11 13
42 12 46
42 13 109
42 15 106
42 16 111
42 17 88
42 18 125
42 19 148
42 20 88
42 21 91
42 22 80
42 23 108
42 24 56
42 26 160
42 27 110
42 28 80
42 29 138
42 30 20
42 31 6
42 32 6
42 33 134
42 34 159
42 35 32
42 36 66
42 37 158
42 38 5
42 39 14
42 40 66
43 1 47
43 2 69
43 3 77
43 4 3
43 5 4
43 6 149
43 7 78
43 8 113
43 9 82
43 10 89
43 11 9
43 12 110
43 13 110
43 15 88
43 16 118
43 17 62
43 18 149
43 20 45
43 21 44
43 22 114
43 23 114
43 24 137
43 25 128
43 26 35
43 27 105
43 28 84
43 29 45
43 30 146
43 31 13
43 32 106
43 33 8
43 34 33
43 35 111
43 36 33
43 37 65
43 38 53
43 39 7
43 40 87
43 41 77
43 42 146
44 0 32
44 1 97
44 3 86
44 5 83
44 6 63
44 7 28
44 8 112
44 9 59
44 10 8
44 11 31
44 12 28
44 13 33
44 14 53
44 15 119
44 16 25
44 17 74
44 18 8
44 19 28
44 20 78
44 21 6
44 22 119
44 24 112
44 25 105
44 26 78
44 27 85
44 28 126
44 29 95
44 30 95
44 32 8
44 33 116
44 35 75
44 37 84
44 38 40
44 39 120
44 40 15
44 43 63
45 0 152
45 1 131
45 2 89
45 3 97
45 4 59
45 5 123
45 6 70
45 7 47
45 8 147
45 10 140
45 11 142
45 12 52
45 13 140
45 14 139
45 15 150
45 16 92
45 18 102
45 19 88
45 20 88
45 21 80
45 22 155
45 23 144
45 24 63
45 25 30
45 26 76
45 27 19
45 28 45
45 29 110
45 30 12
45 31 70
45 32 85
45 33 120
45 34 135
45 35 60
45 36 150
45 37 142
45 38 113
45 39 2
45 40 95
45 41 16
45 42 77
45 43 150
45 44 119
46 1 2
46 2 48
46 3 155
46 4 147
46 5 116
46 6 90
46 7 126
46 8 67
46 9 42
46 10 153
46 11 19
46 13 135
46 16 67
46 17 8
46 18 158
46 19 52
46 20 121
46 21 157
46 22 98
46 23 123
46 24 58
46 25 15
46 26 146
46 28 46
46 29 123
46 30 30
46 31 42
46 32 125
46 34 89
46 35 29
46 36 53
46 37 131
46 38 4
46 39 63
46 40 136
46 41 114
46 42 41
46 43 93
46 44 53
46 45 31
47 0 20
47 1 158
47 2 29
47 3 43
47 4 34
47 5 45
47 6 101
47 7 44
47 8 61
47 9 127
47 10 125
47 11 99
47 12 25
47 13 118
47 14 83
47 15 48
47 16 152
47 17 127
47 18 29
47 19 57
47 21 128
47 22 88
47 25 29
47 26 88
47 28 73
47 29 69
47 30 153
47 31 159
47 32 4
47 33 55
47 34 87
47 35 83
47 36 81
47 38 83
47 39 81
47 40 78
47 41 46
47 42 77
47 43 12
47 44 21
47 45 126
47 46 11
48 0 153
48 1 64
48 2 100
48 3 144
48 4 46
48 5 44
48 7 102
48 9 5
48 10 141
48 11 152
48 12 32
48 13 127
48 14 143
48 15 93
48 16 23
48 17 151
48 18 58
48 19 152
48 20 92
48 21 104
48 22 89
48 23 143
48 24 61
48 25 158
48 26 94
48 27 36
48 28 49
48 29 25
48 30 140
48 31 99
48 32 108
48 33 81
48 34 122
48 35 140
48 36 131
48 37 151
48 38 135
48 39 157
48 40 76
48 41 122
48 42 125
48 43 91
48 44 84
48 45 31
48 47 157
49 0 96
49 1 116
49 2 91
49 3 54
49 4 142
49 5 137
49 6 53
49 7 99
49 9 148
49 10 126
49 11 25
49 12 8
49 14 33
49 15 29
49 16 130
49 17 58
49 19 109
49 20 48
49 21 137
49 22 7
49 23 102
49 24 157
49 25 17
49 26 46
49 27 5
49 28 66
49 29 6
49 30 98
49 31 28
49 32 133
49 33 121
49 34 66
49 35 27
49 36 2
49 37 139
49 38 65
49 39 36
49 40 147
49 41 42
49 43 159
49 44 123
49 46 17
